instances/shortest_path/discrete/shortest_path_6_11.lp
\ Model nohadani_6_11
\ LP format - for model browsing. Use MPS format to capture full model detail.
\ Signature: 0x9d6f60db6d04e09d
Minimize
  31.57530680769389 y[0,1] + 37.73592452822641 y[0,2]
   + 26.92582403567252 y[0,3] + 16.0312195418814 y[0,5]
   + 31.57530680769389 y[1,0] + 26.01922366251538 y[1,2]
   + 53.53503525729669 y[1,3] + 63.24555320336759 y[1,4]
   + 31.62277660168379 y[1,5] + 37.73592452822641 y[2,0]
   + 26.01922366251538 y[2,1] + 46.09772228646444 y[2,3]
   + 47.50789408087881 y[2,5] + 26.92582403567252 y[3,0]
   + 53.53503525729669 y[3,1] + 46.09772228646444 y[3,2]
   + 41.78516483155236 y[3,5] + 63.24555320336759 y[4,1]
   + 50.99019513592785 y[4,5] + 16.0312195418814 y[5,0]
   + 31.62277660168379 y[5,1] + 47.50789408087881 y[5,2]
   + 41.78516483155236 y[5,3] + 50.99019513592785 y[5,4] + x[0,1] + x[0,2]
   + x[0,3] + x[0,5] + x[1,0] + x[1,2] + x[1,3] + x[1,4] + x[1,5] + x[2,0]
   + x[2,1] + x[2,3] + x[2,5] + x[3,0] + x[3,1] + x[3,2] + x[3,5] + x[4,1]
   + x[4,5] + x[5,0] + x[5,1] + x[5,2] + x[5,3] + x[5,4]
   + 3.157530680769389 r[0,1] + 3.773592452822641 r[0,2]
   + 2.692582403567252 r[0,3] + 1.60312195418814 r[0,5]
   + 3.157530680769389 r[1,0] + 2.601922366251538 r[1,2]
   + 5.353503525729669 r[1,3] + 6.324555320336759 r[1,4]
   + 3.16227766016838 r[1,5] + 3.773592452822641 r[2,0]
   + 2.601922366251538 r[2,1] + 4.609772228646444 r[2,3]
   + 4.750789408087882 r[2,5] + 2.692582403567252 r[3,0]
   + 5.353503525729669 r[3,1] + 4.609772228646444 r[3,2]
   + 4.178516483155236 r[3,5] + 6.324555320336759 r[4,1]
   + 5.099019513592785 r[4,5] + 1.60312195418814 r[5,0]
   + 3.16227766016838 r[5,1] + 4.750789408087882 r[5,2]
   + 4.178516483155236 r[5,3] + 5.099019513592785 r[5,4]
Subject To
 flow_cons_inner_nodes[0]: - y[0,1] - y[0,2] - y[0,3] - y[0,5] + y[1,0]
   + y[2,0] + y[3,0] + y[5,0] = 0
 flow_cons_inner_nodes[1]: y[0,1] - y[1,0] - y[1,2] - y[1,3] - y[1,4]
   - y[1,5] + y[2,1] + y[3,1] + y[4,1] + y[5,1] = 0
 flow_cons_inner_nodes[2]: y[0,2] + y[1,2] - y[2,0] - y[2,1] - y[2,3]
   - y[2,5] + y[3,2] + y[5,2] = 0
 flow_cons_inner_nodes[5]: y[0,5] + y[1,5] + y[2,5] + y[3,5] + y[4,5]
   - y[5,0] - y[5,1] - y[5,2] - y[5,3] - y[5,4] = 0
 flow_cons_source: - y[0,3] - y[1,3] - y[2,3] + y[3,0] + y[3,1] + y[3,2]
   + y[3,5] - y[5,3] = 1
 flow_cons_target: y[1,4] - y[4,1] - y[4,5] + y[5,4] = 1
 primal_lower: 3.986370688635579 x[0,1] + 2.427217504353536 x[0,2]
   + 1.415798165180168 x[0,3] + 2.79442990834087 x[0,5]
   + 2.13689766256691 x[1,0] + 1.418367255409394 x[1,2]
   + 3.995267353184644 x[1,3] + 0.6239724076972021 x[1,4]
   + 3.447452209778817 x[1,5] + 2.362673911136326 x[2,0]
   + 3.919441690637666 x[2,1] + 4.184649912910125 x[2,3]
   + 2.377323114239381 x[2,5] + 1.823371752254416 x[3,0]
   + 3.013150311201634 x[3,1] + 2.124763019595951 x[3,2]
   + 0.7779336409610799 x[3,5] + 1.535997507769728 x[4,1]
   + 1.475484771967457 x[4,5] + 3.807419953720465 x[5,0]
   + 1.391110634870587 x[5,1] + 2.493573692629824 x[5,2]
   + 2.645904521547457 x[5,3] + 4.117097516885486 x[5,4] + 19 u[0,1]
   + 43 u[0,2] + 21 u[0,3] + 62 u[0,5] + 59 u[1,0] + 89 u[1,2] + 40 u[1,3]
   + 11 u[1,4] + 64 u[1,5] + 25 u[2,0] + 71 u[2,1] + 86 u[2,3] + 51 u[2,5]
   + 87 u[3,0] + 52 u[3,1] + 48 u[3,2] + 88 u[3,5] + 3 u[4,1] + 28 u[4,5]
   + 25 u[5,0] + 28 u[5,1] + 59 u[5,2] + 7 u[5,3] + 46 u[5,4] <= 101
 mccormick1[0,1]: - u[0,1] + r[0,1] <= 0
 mccormick1[0,2]: - u[0,2] + r[0,2] <= 0
 mccormick1[0,3]: - u[0,3] + r[0,3] <= 0
 mccormick1[0,5]: - u[0,5] + r[0,5] <= 0
 mccormick1[1,0]: - u[1,0] + r[1,0] <= 0
 mccormick1[1,2]: - u[1,2] + r[1,2] <= 0
 mccormick1[1,3]: - u[1,3] + r[1,3] <= 0
 mccormick1[1,4]: - u[1,4] + r[1,4] <= 0
 mccormick1[1,5]: - u[1,5] + r[1,5] <= 0
 mccormick1[2,0]: - u[2,0] + r[2,0] <= 0
 mccormick1[2,1]: - u[2,1] + r[2,1] <= 0
 mccormick1[2,3]: - u[2,3] + r[2,3] <= 0
 mccormick1[2,5]: - u[2,5] + r[2,5] <= 0
 mccormick1[3,0]: - u[3,0] + r[3,0] <= 0
 mccormick1[3,1]: - u[3,1] + r[3,1] <= 0
 mccormick1[3,2]: - u[3,2] + r[3,2] <= 0
 mccormick1[3,5]: - u[3,5] + r[3,5] <= 0
 mccormick1[4,1]: - u[4,1] + r[4,1] <= 0
 mccormick1[4,5]: - u[4,5] + r[4,5] <= 0
 mccormick1[5,0]: - u[5,0] + r[5,0] <= 0
 mccormick1[5,1]: - u[5,1] + r[5,1] <= 0
 mccormick1[5,2]: - u[5,2] + r[5,2] <= 0
 mccormick1[5,3]: - u[5,3] + r[5,3] <= 0
 mccormick1[5,4]: - u[5,4] + r[5,4] <= 0
 mccormick2[0,1]: - y[0,1] + r[0,1] <= 0
 mccormick2[0,2]: - y[0,2] + r[0,2] <= 0
 mccormick2[0,3]: - y[0,3] + r[0,3] <= 0
 mccormick2[0,5]: - y[0,5] + r[0,5] <= 0
 mccormick2[1,0]: - y[1,0] + r[1,0] <= 0
 mccormick2[1,2]: - y[1,2] + r[1,2] <= 0
 mccormick2[1,3]: - y[1,3] + r[1,3] <= 0
 mccormick2[1,4]: - y[1,4] + r[1,4] <= 0
 mccormick2[1,5]: - y[1,5] + r[1,5] <= 0
 mccormick2[2,0]: - y[2,0] + r[2,0] <= 0
 mccormick2[2,1]: - y[2,1] + r[2,1] <= 0
 mccormick2[2,3]: - y[2,3] + r[2,3] <= 0
 mccormick2[2,5]: - y[2,5] + r[2,5] <= 0
 mccormick2[3,0]: - y[3,0] + r[3,0] <= 0
 mccormick2[3,1]: - y[3,1] + r[3,1] <= 0
 mccormick2[3,2]: - y[3,2] + r[3,2] <= 0
 mccormick2[3,5]: - y[3,5] + r[3,5] <= 0
 mccormick2[4,1]: - y[4,1] + r[4,1] <= 0
 mccormick2[4,5]: - y[4,5] + r[4,5] <= 0
 mccormick2[5,0]: - y[5,0] + r[5,0] <= 0
 mccormick2[5,1]: - y[5,1] + r[5,1] <= 0
 mccormick2[5,2]: - y[5,2] + r[5,2] <= 0
 mccormick2[5,3]: - y[5,3] + r[5,3] <= 0
 mccormick2[5,4]: - y[5,4] + r[5,4] <= 0
 mccormick3[0,1]: - y[0,1] - u[0,1] + r[0,1] >= -1
 mccormick3[0,2]: - y[0,2] - u[0,2] + r[0,2] >= -1
 mccormick3[0,3]: - y[0,3] - u[0,3] + r[0,3] >= -1
 mccormick3[0,5]: - y[0,5] - u[0,5] + r[0,5] >= -1
 mccormick3[1,0]: - y[1,0] - u[1,0] + r[1,0] >= -1
 mccormick3[1,2]: - y[1,2] - u[1,2] + r[1,2] >= -1
 mccormick3[1,3]: - y[1,3] - u[1,3] + r[1,3] >= -1
 mccormick3[1,4]: - y[1,4] - u[1,4] + r[1,4] >= -1
 mccormick3[1,5]: - y[1,5] - u[1,5] + r[1,5] >= -1
 mccormick3[2,0]: - y[2,0] - u[2,0] + r[2,0] >= -1
 mccormick3[2,1]: - y[2,1] - u[2,1] + r[2,1] >= -1
 mccormick3[2,3]: - y[2,3] - u[2,3] + r[2,3] >= -1
 mccormick3[2,5]: - y[2,5] - u[2,5] + r[2,5] >= -1
 mccormick3[3,0]: - y[3,0] - u[3,0] + r[3,0] >= -1
 mccormick3[3,1]: - y[3,1] - u[3,1] + r[3,1] >= -1
 mccormick3[3,2]: - y[3,2] - u[3,2] + r[3,2] >= -1
 mccormick3[3,5]: - y[3,5] - u[3,5] + r[3,5] >= -1
 mccormick3[4,1]: - y[4,1] - u[4,1] + r[4,1] >= -1
 mccormick3[4,5]: - y[4,5] - u[4,5] + r[4,5] >= -1
 mccormick3[5,0]: - y[5,0] - u[5,0] + r[5,0] >= -1
 mccormick3[5,1]: - y[5,1] - u[5,1] + r[5,1] >= -1
 mccormick3[5,2]: - y[5,2] - u[5,2] + r[5,2] >= -1
 mccormick3[5,3]: - y[5,3] - u[5,3] + r[5,3] >= -1
 mccormick3[5,4]: - y[5,4] - u[5,4] + r[5,4] >= -1
Bounds
Binaries
 y[0,1] y[0,2] y[0,3] y[0,5] y[1,0] y[1,2] y[1,3] y[1,4] y[1,5] y[2,0]
 y[2,1] y[2,3] y[2,5] y[3,0] y[3,1] y[3,2] y[3,5] y[4,1] y[4,5] y[5,0]
 y[5,1] y[5,2] y[5,3] y[5,4] x[0,1] x[0,2] x[0,3] x[0,5] x[1,0] x[1,2]
 x[1,3] x[1,4] x[1,5] x[2,0] x[2,1] x[2,3] x[2,5] x[3,0] x[3,1] x[3,2]
 x[3,5] x[4,1] x[4,5] x[5,0] x[5,1] x[5,2] x[5,3] x[5,4] u[0,1] u[0,2]
 u[0,3] u[0,5] u[1,0] u[1,2] u[1,3] u[1,4] u[1,5] u[2,0] u[2,1] u[2,3]
 u[2,5] u[3,0] u[3,1] u[3,2] u[3,5] u[4,1] u[4,5] u[5,0] u[5,1] u[5,2]
 u[5,3] u[5,4] r[0,1] r[0,2] r[0,3] r[0,5] r[1,0] r[1,2] r[1,3] r[1,4]
 r[1,5] r[2,0] r[2,1] r[2,3] r[2,5] r[3,0] r[3,1] r[3,2] r[3,5] r[4,1]
 r[4,5] r[5,0] r[5,1] r[5,2] r[5,3] r[5,4]
End
