instances/shortest_path/discrete/shortest_path_6_11.kp
27576
101

[3.9863706886355788 2.4272175043535356 1.415798165180168 2.79442990834087 2.1368976625669096 1.418367255409394 3.995267353184644 0.6239724076972021 3.447452209778817 2.3626739111363255 3.919441690637666 4.184649912910125 2.377323114239381 1.8233717522544162 3.0131503112016342 2.124763019595951 0.7779336409610799 1.5359975077697277 1.4754847719674566 3.807419953720465 1.3911106348705868 2.493573692629824 2.645904521547457 4.117097516885486]

[19 43 21 62 59 89 40 11 64 25 71 86 51 87 52 48 88 3 28 25 28 59 7 46]
